27 6
15 12 21 9 10 13
1 0 0 0 0 0 0 3 2 3 4
6 8 7 0 2 7 2 3 5 6 8
5 0 0 7 8 6 0 4 27 6 7 8
7 3 0 9 4 0 4 3 5 6 7
7 0 7 0 0 2 0 4 9 10 11 12
5 1 0 3 0 9 6 4 9 10 11 12
2 6 1 0 6 0 0 4 9 10 11 12
8 0 10 2 0 0 9 4 9 10 11 12
9 4 0 2 0 0 0 4 13 14 15 16
8 0 3 9 2 0 0 4 13 14 15 16
2 0 0 8 0 4 0 4 13 14 15 16
9 0 0 0 0 0 0 3 13 15 16
6 0 8 5 0 4 1 4 17 18 19 20
5 10 0 3 0 0 6 4 17 18 19 20
4 0 3 1 0 0 0 4 17 18 19 20
9 4 0 0 0 0 0 4 17 18 19 20
3 6 1 0 1 0 0 3 21 22 24
6 0 1 10 0 2 0 4 21 22 23 24
8 8 0 8 0 0 10 3 21 22 24
6 6 6 10 7 7 2 3 21 22 24
2 2 0 9 0 0 0 2 25 26
8 0 0 0 0 0 10 2 25 26
6 0 0 2 0 0 0 2 25 26
7 5 0 0 7 0 7 2 25 26
5 0 10 8 6 0 3 1 27
3 7 0 5 0 6 0 1 27
0 0 0 0 0 0 0 0
